nNurses = 106;
nHours = 25;
minHours = 6;
maxHours = 10;
maxConsec = 10;
maxPresence = 19;
demand = [9, 13, 16, 13, 16, 21, 21, 18, 14, 11, 8, 12, 17, 22, 22, 24, 19, 14, 11, 12, 15, 13, 13, 13, 17];
